
List of user-set options:

                                    Name   Value                used
                           compl_inf_tol = 1                     yes
                         constr_viol_tol = 1                     yes
                            dual_inf_tol = 1000                  yes
                           linear_solver = ma97                  yes
                              ma86_small = 1e-30                  no
                                  ma86_u = 0.0001                 no
                              ma97_order = best                  yes
                              ma97_small = 1e-30                 yes
                            ma97_switch1 = at_start              yes
                            ma97_switch2 = od_hd_reuse           yes
                                  ma97_u = 1e-06                 yes
                               ma97_umax = 0.5                   yes
                                max_iter = 1000                  yes
                    max_refinement_steps = 20                    yes
                    min_refinement_steps = 5                     yes
                                 mu_init = 1e-06                 yes
           mu_superlinear_decrease_power = 1.25                  yes
                   nlp_scaling_min_value = 1e-08                 yes
                        option_file_name = Preset_Case_1000_pf.opt  yes
                             output_file = ./tmp/Preset_Case_1000_pf.output  yes
                      print_user_options = yes                   yes
        required_infeasibility_reduction = 1                      no
                                     tol = 1e-08                 yes
                   warm_start_bound_frac = 1e-20                 yes
                   warm_start_bound_push = 1e-20                 yes
                   warm_start_init_point = yes                   yes
              warm_start_mult_bound_push = 1e-20                 yes
                warm_start_mult_init_max = 1e+40                 yes
             warm_start_slack_bound_frac = 1e-20                 yes
             warm_start_slack_bound_push = 1e-20                 yes

******************************************************************************
This program contains Ipopt, a library for large-scale nonlinear optimization.
 Ipopt is released as open source code under the Eclipse Public License (EPL).
         For more information visit http://projects.coin-or.org/Ipopt
******************************************************************************

This is Ipopt version 3.12.10, running with linear solver ma97.

Number of nonzeros in equality constraint Jacobian...:   123442
Number of nonzeros in inequality constraint Jacobian.:      213
Number of nonzeros in Lagrangian Hessian.............:    49069

Total number of variables............................:    31591
                     variables with only lower bounds:    12912
                variables with lower and upper bounds:    15130
                     variables with only upper bounds:        0
Total number of equality constraints.................:    31483
Total number of inequality constraints...............:       25
        inequality constraints with only lower bounds:        4
   inequality constraints with lower and upper bounds:        0
        inequality constraints with only upper bounds:       21

iter    objective    inf_pr   inf_du lg(mu)  ||d||  lg(rg) alpha_du alpha_pr  ls
   0 -5.3777024e+00 4.05e-03 1.02e+00  -6.0 0.00e+00    -  0.00e+00 0.00e+00   0
   1 -5.3815606e+00 2.96e+00 1.79e+01  -6.0 3.76e+05    -  8.57e-05 7.03e-04h  1
   2 -5.3819209e+00 2.95e+00 1.81e+01  -6.0 2.71e+04    -  4.85e-03 6.63e-04f  1
   3 -5.3939448e+00 2.89e+00 2.20e+01  -6.0 6.46e+03    -  6.52e-02 2.22e-02f  1
   4 -5.4243220e+00 4.11e+00 4.19e+01  -6.0 6.65e+03    -  6.71e-02 5.62e-02h  1
   5 -5.5108442e+00 4.17e+01 2.77e+02  -6.0 7.95e+03    -  1.93e-01 1.62e-01f  1
   6r-5.5108442e+00 4.17e+01 9.99e+02   1.5 0.00e+00  -4.0 0.00e+00 3.09e-07R  2
   7r-5.5175087e+00 4.17e+01 2.78e+03   1.5 1.86e+05    -  2.63e-07 1.86e-08f  1
   8 -5.5175122e+00 4.17e+01 1.01e+02  -6.0 1.09e+02    -  1.13e-05 1.55e-04h  1
   9 -5.5175409e+00 4.16e+01 1.01e+02  -6.0 1.30e+02    -  1.89e-03 2.31e-03h  1
iter    objective    inf_pr   inf_du lg(mu)  ||d||  lg(rg) alpha_du alpha_pr  ls
  10 -5.5168594e+00 4.14e+01 1.00e+02  -6.0 9.00e+01    -  2.67e-03 4.14e-03h  1
  11 -5.5143510e+00 4.08e+01 9.88e+01  -6.0 8.88e+01    -  4.25e-03 1.57e-02h  1
  12 -5.5116142e+00 4.00e+01 1.05e+02  -6.0 8.73e+01    -  1.21e-02 1.76e-02h  1
  13 -5.4942975e+00 3.74e+01 1.97e+02  -6.0 8.48e+01    -  4.75e-02 6.69e-02h  1
  14 -5.4710039e+00 3.36e+01 5.09e+02  -6.0 7.73e+01    -  3.33e-02 1.01e-01h  1
  15 -5.3965370e+00 1.99e+01 1.77e+03  -6.0 6.70e+01    -  1.18e-01 4.08e-01h  1
  16 -5.3886093e+00 1.57e+01 1.93e+07  -6.0 3.09e+01    -  1.04e-01 2.12e-01h  1
  17 -5.3886107e+00 1.57e+01 1.59e+07  -6.0 2.17e+01    -  4.69e-01 3.74e-05h  1
  18 -5.4386235e+00 8.98e+00 3.69e+08  -6.0 2.61e+01    -  5.57e-02 4.27e-01h  1
  19 -5.4976028e+00 6.89e-01 2.86e+07  -6.0 6.97e+00    -  7.77e-01 9.23e-01h  1
iter    objective    inf_pr   inf_du lg(mu)  ||d||  lg(rg) alpha_du alpha_pr  ls
  20 -5.5126314e+00 6.26e-01 2.60e+07  -6.0 4.40e+01    -  8.97e-02 9.19e-02h  1
  21 -5.5533140e+00 3.87e-01 1.61e+07  -6.0 4.66e+01    -  3.14e-01 3.82e-01h  1
  22 -5.5837131e+00 3.02e-01 1.26e+07  -6.0 3.78e+01    -  2.98e-01 2.19e-01h  1
  23 -5.5943638e+00 1.00e-01 4.16e+06  -6.0 3.68e+01    -  1.14e-01 6.68e-01h  1
  24 -5.6142388e+00 7.99e-02 3.32e+06  -6.0 5.47e+01    -  2.46e-01 2.02e-01h  1
  25 -5.6944756e+00 7.04e-01 2.76e+03  -6.0 3.71e+01    -  3.83e-01 1.00e+00h  1
  26 -5.7009024e+00 6.38e-01 2.46e+03  -6.0 5.37e+01    -  5.83e-01 1.04e-01h  1
  27 -5.8146042e+00 1.89e+00 3.32e+02  -6.0 9.56e+01    -  6.70e-01 1.00e+00f  1
  28 -5.8295580e+00 1.39e+00 2.43e+02  -6.0 1.46e+02    -  8.10e-01 3.23e-01h  1
  29 -5.8928254e+00 1.01e+00 1.91e+02  -6.0 2.95e+02    -  7.44e-01 8.10e-01h  1
iter    objective    inf_pr   inf_du lg(mu)  ||d||  lg(rg) alpha_du alpha_pr  ls
  30 -5.9050376e+00 6.59e+00 1.68e+01  -6.0 7.14e+02    -  7.84e-01 9.69e-01h  1
  31 -5.9306991e+00 3.66e+01 9.64e+01  -6.0 2.06e+03    -  5.92e-01 7.65e-01h  1
  32 -5.9322696e+00 3.46e+01 9.19e+01  -6.0 1.31e+03    -  3.58e-02 5.86e-02h  1
  33 -5.9322091e+00 3.40e+01 8.24e+02  -6.0 1.29e+03    -  6.43e-03 1.74e-02h  1
  34 -5.9343832e+00 3.04e+01 5.87e+02  -6.0 1.20e+03    -  1.50e-01 1.13e-01h  1
  35 -5.9480288e+00 2.01e+01 3.69e+03  -6.0 1.11e+03    -  1.49e-01 8.87e-01h  1
  36 -5.9486859e+00 1.85e+01 2.32e+03  -6.0 8.10e+02    -  1.35e-01 8.43e-02h  1
  37 -5.9569726e+00 1.29e+01 1.82e+04  -6.0 8.33e+02    -  1.52e-01 1.00e+00h  1
  38 -5.9580373e+00 1.17e+01 1.01e+04  -6.0 7.15e+02    -  4.03e-01 8.89e-02h  1
  39 -5.9669001e+00 1.72e+01 3.15e+04  -6.0 1.22e+03    -  1.95e-01 7.22e-01h  1
iter    objective    inf_pr   inf_du lg(mu)  ||d||  lg(rg) alpha_du alpha_pr  ls
  40 -5.9693701e+00 1.57e+01 7.80e+04  -6.0 1.66e+03    -  6.71e-01 1.76e-01h  1
  41 -5.9752727e+00 1.02e+01 9.67e+04  -6.0 5.88e+02    -  7.73e-01 4.22e-01h  1
  42 -5.9759820e+00 9.63e+00 2.46e+06  -6.0 5.75e+02  -4.5 1.00e-05 5.23e-02h  1
  43 -5.9757367e+00 7.43e+00 6.88e+06  -6.0 1.56e+02  -5.0 1.34e-02 2.29e-01h  1
  44 -5.9797770e+00 4.59e+00 4.26e+06  -6.0 1.17e+01  -5.4 2.44e-01 3.82e-01h  1
  45 -5.9802662e+00 8.12e+00 3.94e+06  -6.0 6.21e+03    -  1.95e-03 7.39e-02h  1
  46 -5.9822278e+00 5.23e+00 1.53e+06  -6.0 5.64e+02    -  1.67e-01 6.12e-01h  1
  47 -5.9818903e+00 7.32e-03 8.92e+02  -6.0 1.63e+01  -5.9 4.24e-01 1.00e+00h  1
  48 -5.9858524e+00 1.13e-01 3.34e+00  -6.0 6.34e+01  -6.4 9.94e-01 1.00e+00h  1
  49 -5.9967859e+00 7.37e-01 3.95e+00  -6.0 1.62e+02  -6.9 1.00e+00 1.00e+00h  1
iter    objective    inf_pr   inf_du lg(mu)  ||d||  lg(rg) alpha_du alpha_pr  ls
  50 -6.0034765e+00 6.81e-01 5.98e+00  -6.0 1.72e+02  -7.3 1.00e+00 7.41e-01h  1
  51 -6.0012978e+00 7.02e-01 1.83e+01  -6.0 1.39e+02  -6.9 9.64e-06 1.82e-01H  1
  52 -6.0030449e+00 3.69e-02 1.17e+02  -6.0 4.11e+01  -7.4 4.53e-01 1.00e+00f  1
  53 -6.0044015e+00 8.03e-02 1.25e+00  -6.0 5.02e+01  -7.0 1.00e+00 1.00e+00h  1
  54 -6.0063591e+00 3.76e+00 1.60e+02  -6.0 4.82e+02  -7.4 1.05e-01 1.00e+00h  1
  55 -6.0179095e+00 4.91e-01 4.93e+01  -6.0 1.53e+02  -7.0 5.39e-01 9.36e-01h  1
  56 -6.0409407e+00 4.17e+00 4.47e+01  -6.0 6.41e+02  -7.5 6.61e-01 1.00e+00h  1
  57 -6.0626717e+00 4.14e+00 4.73e+01  -6.0 4.44e+03    -  1.39e-01 1.57e-01h  1
  58 -6.1058352e+00 4.35e+01 3.68e+03  -6.0 2.62e+03    -  1.22e-01 7.44e-01h  1
  59 -6.1080143e+00 4.32e+01 3.57e+03  -6.0 3.92e+02  -5.3 8.24e-03 7.40e-03h  1
iter    objective    inf_pr   inf_du lg(mu)  ||d||  lg(rg) alpha_du alpha_pr  ls
  60 -6.1053545e+00 2.14e+01 5.62e+03  -6.0 1.23e+03    -  2.86e-01 5.56e-01h  1
  61 -6.1053544e+00 2.14e+01 5.36e+03  -6.0 2.27e+03    -  9.02e-03 2.09e-05h  1
  62 -6.1048610e+00 1.74e+01 8.49e+03  -6.0 1.52e+03    -  4.48e-02 1.90e-01h  1
  63 -6.1033864e+00 1.11e+01 3.41e+04  -6.0 9.01e+02    -  1.08e-01 1.00e+00h  1
  64 -6.1040039e+00 1.03e+01 1.84e+04  -6.0 9.68e+02    -  4.62e-01 8.42e-02h  1
  65 -6.1112597e+00 1.27e+01 3.59e+04  -6.0 9.64e+02    -  6.12e-01 1.00e+00h  1
  66 -6.1135497e+00 9.63e+00 8.58e+03  -6.0 5.64e+02    -  3.51e-01 2.67e-01h  1
  67 -6.1181981e+00 6.34e+00 1.52e+05  -6.0 6.58e+02    -  6.98e-01 4.56e-01h  1
  68r-6.1181981e+00 6.34e+00 1.00e+03   0.6 0.00e+00  -5.7 0.00e+00 2.80e-07R  2
  69r-6.1511397e+00 6.34e+00 1.00e+03   0.6 1.91e+04    -  1.56e-06 7.17e-07f  1
iter    objective    inf_pr   inf_du lg(mu)  ||d||  lg(rg) alpha_du alpha_pr  ls
  70 -6.1476742e+00 5.68e+00 4.81e+05  -6.0 2.88e+00    -  4.01e-01 1.03e-01h  1
  71 -6.1361104e+00 3.50e+00 2.06e+06  -6.0 2.56e+00    -  1.03e-01 3.85e-01h  1
  72 -6.1267590e+00 1.73e+00 1.02e+06  -6.0 1.56e+00    -  8.01e-01 5.06e-01h  1
  73 -6.1185089e+00 4.83e-04 1.32e+01  -6.0 1.03e+00    -  8.53e-01 1.00e+00h  1
  74 -6.1200592e+00 2.21e-03 6.79e+00  -6.0 1.81e+00    -  8.93e-01 1.00e+00h  1
  75 -6.1197166e+00 7.39e-04 1.43e-01  -6.0 6.38e+00    -  9.89e-01 1.00e+00h  1
  76 -6.1197238e+00 7.39e-04 4.88e+00  -6.0 2.62e+02    -  9.55e-01 1.32e-02h  6
  77 -6.1197305e+00 7.80e-04 5.42e+00  -6.0 6.45e+02    -  9.04e-02 6.00e-03h  6
  78 -6.1194666e+00 1.37e-04 1.26e+00  -6.0 1.02e+01  -6.2 9.32e-01 1.00e+00h  1
  79 -6.1194956e+00 1.97e-03 9.00e+00  -6.0 7.31e+02    -  5.74e-01 1.60e-02h  4
iter    objective    inf_pr   inf_du lg(mu)  ||d||  lg(rg) alpha_du alpha_pr  ls
  80 -6.1196530e+00 1.39e-03 2.49e+01  -6.0 3.40e+01  -6.7 1.00e+00 3.06e-01h  1
  81 -6.1196629e+00 1.80e-03 2.45e+01  -6.0 7.04e+02    -  1.08e-02 7.75e-03f  5
  82 -6.1195264e+00 1.32e-04 1.85e+01  -6.0 2.73e+01  -7.2 6.71e-01 1.00e+00H  1
  83 -6.1195372e+00 1.56e-03 8.35e+00  -6.0 1.97e+04    -  8.38e-03 5.20e-04h  7
  84 -6.1197371e+00 8.56e-04 2.13e+01  -6.0 3.58e+01  -6.7 1.00e+00 4.50e-01h  1
  85 -6.1197519e+00 1.31e-03 2.13e+01  -6.0 6.42e+02    -  5.24e-03 1.38e-02f  4
  86 -6.1197559e+00 1.26e-03 3.68e+01  -6.0 1.24e+01  -7.2 1.00e+00 4.62e-02h  1
  87 -6.1197702e+00 2.38e-03 2.88e+01  -6.0 6.35e+02    -  5.48e-01 1.49e-02f  4
  88 -6.1197604e+00 2.38e-03 6.74e+00  -6.0 2.76e+03  -7.7 7.73e-03 8.69e-04h 10
  89 -6.1201371e+00 8.34e-01 3.30e+00  -6.0 5.37e+02    -  9.40e-02 4.50e-01h  1
iter    objective    inf_pr   inf_du lg(mu)  ||d||  lg(rg) alpha_du alpha_pr  ls
  90 -6.1203094e+00 1.05e+00 1.26e+03  -6.0 3.64e+02    -  1.29e-01 1.00e+00H  1
  91 -6.1204502e+00 1.58e-02 4.25e+01  -6.0 4.48e+01  -7.3 2.42e-01 1.00e+00h  1
  92 -6.1207082e+00 5.89e-03 9.11e-02  -6.0 3.03e+01  -6.8 1.00e+00 1.00e+00h  1
  93 -6.1223146e+00 4.33e-01 2.06e+01  -6.0 1.65e+02  -7.3 4.54e-01 1.00e+00h  1
  94 -6.1246212e+00 6.77e-02 6.99e-01  -6.0 7.03e+01  -6.9 1.00e+00 1.00e+00h  1
  95 -6.1321983e+00 1.51e+00 1.46e+01  -6.0 3.32e+02  -7.4 8.07e-01 1.00e+00h  1
  96 -6.1693175e+00 1.06e+01 1.24e+02  -6.0 1.27e+03  -7.9 4.01e-01 1.00e+00h  1
  97 -6.1799019e+00 5.81e+00 2.26e+02  -6.0 2.53e+03    -  3.69e-01 5.10e-01h  1
  98 -6.1802776e+00 4.19e+00 1.78e+02  -6.0 1.08e+03    -  4.95e-01 2.81e-01h  1
  99 -6.1810400e+00 3.96e+00 1.07e+02  -6.0 7.12e+02    -  6.31e-01 1.00e+00h  1
iter    objective    inf_pr   inf_du lg(mu)  ||d||  lg(rg) alpha_du alpha_pr  ls
 100 -6.1805779e+00 2.50e+00 1.17e+01  -6.0 4.11e+02    -  5.50e-01 1.00e+00h  1
 101 -6.1805731e+00 4.07e-01 6.67e-02  -6.0 1.68e+02    -  1.00e+00 1.00e+00h  1
 102 -6.1806641e+00 5.79e-01 5.27e+00  -6.0 4.59e+02    -  1.00e+00 4.30e-01h  1
 103 -6.1806174e+00 2.35e-02 5.33e-03  -6.0 3.95e+01    -  1.00e+00 1.00e+00h  1
 104 -6.1806377e+00 6.10e-02 1.21e-02  -6.0 6.46e+01  -8.3 1.00e+00 1.00e+00h  1
 105 -6.1806983e+00 1.42e+00 1.94e-01  -6.0 2.63e+02    -  1.00e+00 1.00e+00h  1
 106 -6.1806589e+00 2.58e-02 3.92e-02  -6.0 1.92e+01    -  9.26e-01 1.00e+00h  1
 107 -6.1806589e+00 4.42e-03 1.10e-04  -6.0 6.51e+00    -  1.00e+00 1.00e+00h  1
 108 -6.1806589e+00 1.76e-05 3.78e-07  -6.0 3.81e-01    -  1.00e+00 1.00e+00h  1
 109 -6.1806589e+00 4.25e-10 1.82e-11  -6.0 3.13e-04    -  1.00e+00 1.00e+00h  1
iter    objective    inf_pr   inf_du lg(mu)  ||d||  lg(rg) alpha_du alpha_pr  ls
 110 -6.1807805e+00 2.98e+00 4.91e+00  -7.5 5.69e+02    -  7.66e-01 7.76e-01h  1
 111 -6.1807700e+00 7.21e-01 1.16e+01  -7.5 1.46e+02    -  1.00e+00 8.41e-01h  1
 112 -6.1807655e+00 8.27e-03 1.99e-02  -7.5 2.22e+01    -  1.00e+00 1.00e+00h  1
 113 -6.1807654e+00 7.78e-07 2.23e-07  -7.5 2.30e-01    -  1.00e+00 1.00e+00h  1
 114 -6.1807654e+00 2.94e-10 9.61e-12  -7.5 1.32e-05    -  1.00e+00 1.00e+00h  1
 115 -6.1807669e+00 3.92e-03 8.94e-01  -9.0 1.91e+01    -  9.23e-01 8.26e-01h  1
 116 -6.1807671e+00 1.78e-04 1.95e-01  -9.0 3.35e+00    -  9.58e-01 1.00e+00h  1
 117 -6.1807671e+00 2.83e-10 5.41e-09  -9.0 2.94e-03    -  1.00e+00 1.00e+00h  1

Number of Iterations....: 117

                                   (scaled)                 (unscaled)
Objective...............:  -4.8287243120628442e+00   -6.1807671194404410e+00
Dual infeasibility......:   5.4143675358108004e-09    6.9303904458378251e-09
Constraint violation....:   2.8349143638053270e-10    2.8349143638053270e-10
Complementarity.........:   1.4292223070922127e-09    1.8294045530780322e-09
Overall NLP error.......:   5.4143675358108004e-09    6.9303904458378251e-09


Number of objective function evaluations             = 180
Number of objective gradient evaluations             = 118
Number of equality constraint evaluations            = 180
Number of inequality constraint evaluations          = 180
Number of equality constraint Jacobian evaluations   = 120
Number of inequality constraint Jacobian evaluations = 120
Number of Lagrangian Hessian evaluations             = 117
Total CPU secs in IPOPT (w/o function evaluations)   =    150.684
Total CPU secs in NLP function evaluations           =      2.815

EXIT: Optimal Solution Found.
